decision_x1=[0,2];
decision_x2=[0,2];
decision_x3=[0,2];
decision_x4=[0,2];
decision_x5=[0,2];
decision_x6=[0,2];
decision_x7=[0,2];
decision_x8=[0,2];
decision_x9=[0,2];
decision_x10=[0,2];
decision_x11=[0,2];
decision_x12=[0,2];
random_y1=[0,2];
random_y2=[0,2];
random_y3=[0,2];
random_y4=[0,2];
random_y5=[0,2];
random_y6=[0,2];
random_y7=[0,2];
random_y8=[0,2];
random_y9=[0,2];
random_y10=[0,2];
random_y11=[0,2];
random_y12=[0,2];
constraint_x3_x1=[
0,0,3.1|
0,1,8.3|
0,2,5.4|
1,0,2|
1,1,5.6|
1,2,0.67|
2,0,0.71|
2,1,5.6|
2,2,3.3|
];
constraint_x3_x2=[
0,0,9.3|
0,1,1.1|
0,2,8.1|
1,0,6.5|
1,1,3.2|
1,2,8.9|
2,0,9.2|
2,1,5.4|
2,2,7|
];
constraint_x4_x1=[
0,0,9.6|
0,1,9|
0,2,8.7|
1,0,1.6|
1,1,2.6|
1,2,3|
2,0,2.7|
2,1,7.6|
2,2,0.00025|
];
constraint_x4_x3=[
0,0,7.3|
0,1,2.3|
0,2,3.9|
1,0,4.7|
1,1,4.6|
1,2,4.6|
2,0,9.9|
2,1,5.2|
2,2,7.6|
];
constraint_x5_x2=[
0,0,4.8|
0,1,8.6|
0,2,4.1|
1,0,1.9|
1,1,3.1|
1,2,8.7|
2,0,8.6|
2,1,3.7|
2,2,4.9|
];
constraint_x5_x3=[
0,0,6.1|
0,1,5.4|
0,2,4.6|
1,0,5.9|
1,1,0.51|
1,2,8|
2,0,3.2|
2,1,3|
2,2,8.7|
];
constraint_x6_x1=[
0,0,0.54|
0,1,8.8|
0,2,8.9|
1,0,2.3|
1,1,6.6|
1,2,1.4|
2,0,3.6|
2,1,1.6|
2,2,9.9|
];
constraint_x6_x3=[
0,0,4.9|
0,1,9|
0,2,8.4|
1,0,2.4|
1,1,2|
1,2,2.6|
2,0,2.1|
2,1,4.8|
2,2,1.2|
];
constraint_x7_x1=[
0,0,5.1|
0,1,2.4|
0,2,3.6|
1,0,9.7|
1,1,4.6|
1,2,5.4|
2,0,5.2|
2,1,9.3|
2,2,8|
];
constraint_x7_x6=[
0,0,0.77|
0,1,0.63|
0,2,5.4|
1,0,6.2|
1,1,2.2|
1,2,9.4|
2,0,6.7|
2,1,3.5|
2,2,8.2|
];
constraint_x8_x1=[
0,0,1.1|
0,1,2|
0,2,5.8|
1,0,4.6|
1,1,2.1|
1,2,6|
2,0,1.6|
2,1,0.27|
2,2,0.82|
];
constraint_x8_x3=[
0,0,3.4|
0,1,0.047|
0,2,3.3|
1,0,7.4|
1,1,4.9|
1,2,1.1|
2,0,6|
2,1,8.8|
2,2,9.1|
];
constraint_x8_x5=[
0,0,7.9|
0,1,9.2|
0,2,1.7|
1,0,9|
1,1,6.2|
1,2,8.6|
2,0,3|
2,1,5.6|
2,2,9.1|
];
constraint_x9_x4=[
0,0,7|
0,1,6.8|
0,2,3.6|
1,0,7.9|
1,1,4.3|
1,2,9.1|
2,0,0.71|
2,1,0.98|
2,2,9.6|
];
constraint_x9_x5=[
0,0,1.5|
0,1,2.3|
0,2,7.7|
1,0,9.5|
1,1,2.2|
1,2,7.1|
2,0,9.6|
2,1,7.4|
2,2,7.3|
];
constraint_x9_x7=[
0,0,9.3|
0,1,1.1|
0,2,0.14|
1,0,7.7|
1,1,0.84|
1,2,4.8|
2,0,0.66|
2,1,7.1|
2,2,6.4|
];
constraint_x10_x6=[
0,0,9.9|
0,1,9.7|
0,2,2.6|
1,0,2.4|
1,1,1.5|
1,2,1.4|
2,0,2.8|
2,1,9.5|
2,2,1.5|
];
constraint_x10_x8=[
0,0,1.5|
0,1,4.4|
0,2,0.52|
1,0,4.6|
1,1,9.4|
1,2,2.2|
2,0,5|
2,1,8.8|
2,2,8.3|
];
constraint_x10_x9=[
0,0,3.5|
0,1,9|
0,2,4.1|
1,0,5.1|
1,1,0.022|
1,2,4.4|
2,0,9.9|
2,1,5.4|
2,2,0.83|
];
constraint_x11_x3=[
0,0,6.8|
0,1,5.3|
0,2,3.9|
1,0,0.052|
1,1,5.9|
1,2,2.2|
2,0,1.4|
2,1,7.1|
2,2,2.5|
];
constraint_x11_x4=[
0,0,2.4|
0,1,9|
0,2,0.072|
1,0,0.72|
1,1,4.9|
1,2,5.3|
2,0,8.3|
2,1,0.96|
2,2,6.4|
];
constraint_x11_x5=[
0,0,9.7|
0,1,8.1|
0,2,8.7|
1,0,8.8|
1,1,9|
1,2,0.42|
2,0,7.2|
2,1,9.7|
2,2,9.1|
];
constraint_x11_x6=[
0,0,1.8|
0,1,6.9|
0,2,4.9|
1,0,6.5|
1,1,0.33|
1,2,5.7|
2,0,3.8|
2,1,9.1|
2,2,7.7|
];
constraint_x11_x7=[
0,0,3.5|
0,1,3.1|
0,2,2.7|
1,0,9.2|
1,1,1.5|
1,2,9|
2,0,1.2|
2,1,7.3|
2,2,4.7|
];
constraint_x11_x9=[
0,0,0.65|
0,1,2|
0,2,1.1|
1,0,3.2|
1,1,3.3|
1,2,7.1|
2,0,9.8|
2,1,9.5|
2,2,3.7|
];
constraint_x11_x10=[
0,0,2.2|
0,1,0.56|
0,2,7.4|
1,0,6.4|
1,1,5.6|
1,2,0.28|
2,0,4.2|
2,1,2.2|
2,2,8.1|
];
constraint_x12_x1=[
0,0,4.6|
0,1,6.5|
0,2,7.6|
1,0,5.7|
1,1,1.8|
1,2,4.1|
2,0,7.1|
2,1,5.5|
2,2,5|
];
constraint_x12_x2=[
0,0,4.7|
0,1,0.098|
0,2,8.8|
1,0,9.9|
1,1,9.2|
1,2,1.1|
2,0,8.3|
2,1,9.2|
2,2,4.9|
];
constraint_x12_x4=[
0,0,6.2|
0,1,8.9|
0,2,7.8|
1,0,9.3|
1,1,0.56|
1,2,5.8|
2,0,6.9|
2,1,3|
2,2,4.7|
];
constraint_x12_x5=[
0,0,7.8|
0,1,5.5|
0,2,4.1|
1,0,8.3|
1,1,7.7|
1,2,9.6|
2,0,0.9|
2,1,6.8|
2,2,0.68|
];
constraint_x12_x8=[
0,0,5.2|
0,1,3|
0,2,7.4|
1,0,1.5|
1,1,3|
1,2,4.1|
2,0,9.1|
2,1,0.28|
2,2,8|
];
constraint_x12_x9=[
0,0,1.1|
0,1,7|
0,2,1.2|
1,0,8.1|
1,1,7.6|
1,2,0.62|
2,0,5.6|
2,1,8.3|
2,2,2.8|
];
constraint_x12_x10=[
0,0,7.7|
0,1,7.1|
0,2,1.3|
1,0,5.3|
1,1,3|
1,2,6.6|
2,0,7.9|
2,1,6|
2,2,7|
];
constraint_x1_y1=[
0,0,4.3|
0,1,6.6|
0,2,0.12|
1,0,3|
1,1,1.5|
1,2,0.91|
2,0,4.6|
2,1,3.2|
2,2,7.9|
];
constraint_x2_y2=[
0,0,5.2|
0,1,1.7|
0,2,8.6|
1,0,7.7|
1,1,1.4|
1,2,1.8|
2,0,4.3|
2,1,7.5|
2,2,8.8|
];
constraint_x3_y3=[
0,0,4.5|
0,1,8.2|
0,2,6.4|
1,0,0.53|
1,1,3.3|
1,2,1.9|
2,0,6.2|
2,1,6.7|
2,2,6.8|
];
constraint_x4_y4=[
0,0,4.9|
0,1,4.7|
0,2,7.8|
1,0,9.9|
1,1,0.038|
1,2,2.4|
2,0,2|
2,1,4.4|
2,2,3.1|
];
constraint_x5_y5=[
0,0,0.68|
0,1,0.6|
0,2,3.2|
1,0,6.2|
1,1,6.6|
1,2,4.1|
2,0,9.1|
2,1,2.1|
2,2,0.88|
];
constraint_x6_y6=[
0,0,4.4|
0,1,9.6|
0,2,7.2|
1,0,8.9|
1,1,6|
1,2,9.9|
2,0,8.3|
2,1,0.28|
2,2,2.8|
];
constraint_x7_y7=[
0,0,1.6|
0,1,7.2|
0,2,1.2|
1,0,1.7|
1,1,3.2|
1,2,8.1|
2,0,2.2|
2,1,7.9|
2,2,4.5|
];
constraint_x8_y8=[
0,0,0.86|
0,1,6.1|
0,2,6.6|
1,0,10|
1,1,1.8|
1,2,3.3|
2,0,3.7|
2,1,9.6|
2,2,5.5|
];
constraint_x9_y9=[
0,0,9.8|
0,1,3.3|
0,2,8.7|
1,0,9|
1,1,4.8|
1,2,7.6|
2,0,3.4|
2,1,5|
2,2,1.8|
];
constraint_x10_y10=[
0,0,3|
0,1,9.9|
0,2,5.8|
1,0,8.7|
1,1,2.2|
1,2,5.4|
2,0,7.6|
2,1,7.9|
2,2,1.5|
];
constraint_x11_y11=[
0,0,4.4|
0,1,0.68|
0,2,5.3|
1,0,5|
1,1,5.2|
1,2,8.6|
2,0,6.2|
2,1,0.73|
2,2,1.7|
];
constraint_x12_y12=[
0,0,9|
0,1,9.6|
0,2,7.9|
1,0,0.54|
1,1,6.7|
1,2,4.4|
2,0,1.8|
2,1,1.4|
2,2,4.9|
];
initial_distribution_y1=[0.23,0.37,0.4];
initial_distribution_y2=[0.047,0.45,0.51];
initial_distribution_y3=[0.072,0.19,0.74];
initial_distribution_y4=[0.25,0.28,0.48];
initial_distribution_y5=[0.43,0.18,0.39];
initial_distribution_y6=[0.53,0.031,0.44];
initial_distribution_y7=[0.34,0.054,0.6];
initial_distribution_y8=[0.37,0.32,0.31];
initial_distribution_y9=[0.47,0.032,0.5];
initial_distribution_y10=[0.17,0.54,0.3];
initial_distribution_y11=[0.28,0.38,0.34];
initial_distribution_y12=[0.28,0.39,0.33];
transition_y1=[
0.35,0.36,0.28|
0.018,0.7,0.28|
0.45,0.31,0.24|
];
transition_y2=[
0.45,0.16,0.39|
0.3,0.3,0.41|
0.2,0.38,0.42|
];
transition_y3=[
0.31,0.49,0.2|
0.73,0.11,0.16|
0.18,0.41,0.4|
];
transition_y4=[
0.57,0.099,0.33|
0.36,0.39,0.25|
0.27,0.36,0.38|
];
transition_y5=[
0.23,0.25,0.52|
0.28,0.45,0.27|
0.4,0.27,0.33|
];
transition_y6=[
0.52,0.42,0.059|
0.5,0.35,0.15|
0.078,0.44,0.48|
];
transition_y7=[
0.26,0.32,0.42|
0.45,0.48,0.066|
0.45,0.35,0.21|
];
transition_y8=[
0.38,0.091,0.53|
0.02,0.59,0.39|
0.58,0.18,0.25|
];
transition_y9=[
0.19,0.48,0.34|
0.033,0.54,0.43|
0.37,0.44,0.19|
];
transition_y10=[
0.039,0.44,0.52|
0.34,0.2,0.45|
0.2,0.5,0.3|
];
transition_y11=[
0.23,0.6,0.17|
0.41,0.11,0.48|
0.018,0.88,0.1|
];
transition_y12=[
0.35,0.39,0.26|
0.79,0.038,0.17|
0.35,0.44,0.2|
];
